2 0 2 0
1 0 1 0
5 0 1 8
0 0 2 5
0 1 0 6
2 1 3 5
2 2 5 9
3 0 1 11
1 1 2 8
3 1 0 16
5 1 3 11
4 0 2 13
0 2 1 16
4 1 1 22
5 2 5 17
1 2 4 13
2 3 0 21
2 4 1 30
5 3 0 30
3 2 2 22
3 3 3 27
4 2 4 25
0 3 3 30
1 3 5 26
0 4 5 37
1 4 0 40
3 4 4 30
4 3 5 40
2 5 4 38
5 4 4 45
0 5 4 49
4 4 0 50
5 5 2 49
1 5 3 50
4 5 3 54
3 5 5 44

